benchmarks/crosswords/mzn/crossword3_38.ozn
output ([(((("\n"++problem_name)++"\n")++"L:")++show(L))++"\n"]++[if problem[i,j]==0 then "*" else show(letters[fix(L[problem[i,j]])]) endif++if j==cols then "\n" else "" endif | i in 1..rows, j in 1..cols, ])++["\n"];
int: rows = 21;
int: cols = 21;
array [1..rows,1..cols] of int: problem = [|0,0,1,2,3,4,5,0,6,7,8,9,10,0,11,12,13,14,15,0,0|0,16,17,18,19,20,21,0,22,23,24,25,26,0,27,28,29,30,31,32,0|33,34,35,36,37,38,39,0,40,41,42,43,44,0,45,46,47,48,49,50,51|52,53,54,0,55,56,57,58,59,60,61,0,62,63,64,65,66,0,67,68,69|70,71,72,73,0,74,75,76,77,78,0,79,80,81,82,83,0,84,85,86,87|88,89,90,91,92,0,93,94,95,0,96,97,98,99,100,0,101,102,103,104,105|106,107,108,109,110,111,112,113,0,114,115,116,117,118,0,119,120,121,122,123,124|0,0,0,125,126,127,128,0,129,130,131,132,133,0,134,135,136,137,0,0,0|138,139,140,141,142,143,0,144,145,146,147,148,0,149,150,151,152,153,154,155,156|157,158,159,160,161,0,162,163,164,165,166,0,167,168,169,170,171,0,172,173,174|175,176,177,178,0,179,180,181,182,183,0,184,185,186,187,188,0,189,190,191,192|193,194,195,0,196,197,198,199,200,0,201,202,203,204,205,0,206,207,208,209,210|211,212,213,214,215,216,217,218,0,219,220,221,222,223,0,224,225,226,227,228,229|0,0,0,230,231,232,233,0,234,235,236,237,238,0,239,240,241,242,0,0,0|243,244,245,246,247,248,0,249,250,251,252,253,0,254,255,256,257,258,259,260,261|262,263,264,265,266,0,267,268,269,270,271,0,272,273,274,0,275,276,277,278,279|280,281,282,283,0,284,285,286,287,288,0,289,290,291,292,293,0,294,295,296,297|298,299,300,0,301,302,303,304,305,0,306,307,308,309,310,311,312,0,313,314,315|316,317,318,319,320,321,322,0,323,324,325,326,327,0,328,329,330,331,332,333,334|0,335,336,337,338,339,340,0,341,342,343,344,345,0,346,347,348,349,350,351,0|0,0,352,353,354,355,356,0,357,358,359,360,361,0,362,363,364,365,366,0,0|];
int: num_letters = 26;
array [1..num_letters] of string: letters = ["a","b","c","d","e","f","g","h","i","j","k","l","m","n","o","p","q","r","s","t","u","v","w","x","y","z"];
int: N = 366;
array [0..N] of int: L;
string: problem_name = "21.09, 21 x 21";
