benchmarks/crosswords/mzn/crossword3_38.res
REGULAR
REGULAR
REGULAR
REGULAR
REGULAR
REGULAR
REGULAR
REGULAR
REGULAR
REGULAR
REGULAR
REGULAR
REGULAR
REGULAR
REGULAR
REGULAR
REGULAR
REGULAR
REGULAR
REGULAR
REGULAR
REGULAR
REGULAR
REGULAR
REGULAR
REGULAR
REGULAR
REGULAR
REGULAR
REGULAR
REGULAR
REGULAR
REGULAR
REGULAR
REGULAR
REGULAR
REGULAR
REGULAR
REGULAR
REGULAR
REGULAR
REGULAR
REGULAR
REGULAR
REGULAR
REGULAR
REGULAR
REGULAR
REGULAR
REGULAR
REGULAR
REGULAR
REGULAR
REGULAR
REGULAR
REGULAR
REGULAR
REGULAR
REGULAR
REGULAR
REGULAR
REGULAR
REGULAR
REGULAR
REGULAR
REGULAR
REGULAR
REGULAR
REGULAR
REGULAR
REGULAR
REGULAR
REGULAR
REGULAR
REGULAR
REGULAR
REGULAR
REGULAR
REGULAR
REGULAR
REGULAR
REGULAR
REGULAR
REGULAR
REGULAR
REGULAR
REGULAR
REGULAR
REGULAR
REGULAR
REGULAR
REGULAR
REGULAR
REGULAR
REGULAR
REGULAR
REGULAR
REGULAR
REGULAR
REGULAR
REGULAR
REGULAR
REGULAR
REGULAR
REGULAR
REGULAR
REGULAR
REGULAR
REGULAR
REGULAR
REGULAR
REGULAR
REGULAR
REGULAR
REGULAR
REGULAR
REGULAR
REGULAR
REGULAR
REGULAR
REGULAR
REGULAR
REGULAR
REGULAR
REGULAR
REGULAR
REGULAR
REGULAR
REGULAR
REGULAR
REGULAR
REGULAR
REGULAR
REGULAR
REGULAR
REGULAR
REGULAR
REGULAR
REGULAR
REGULAR
REGULAR
REGULAR
REGULAR
REGULAR
=====UNKNOWN=====

%%  runtime:       16:59.168 (1019168.910 ms)
%%  solvetime:     16:40.006 (1000006.506 ms)
%%  solutions:     0
%%  variables:     35682
%%  propagators:   45755
%%  propagations:  1241253810
%%  nodes:         361599
%%  failures:      180748
%%  restarts:      0
%%  peak depth:    153

GECODE_TUPLESET_MEM
GECODE_TUPLESET_MEM
GECODE_TUPLESET_MEM
GECODE_TUPLESET_MEM
GECODE_TUPLESET_MEM
GECODE_TUPLESET_MEM
GECODE_TUPLESET_MEM
GECODE_TUPLESET_MEM
GECODE_TUPLESET_MEM
GECODE_TUPLESET_MEM
GECODE_TUPLESET_MEM
GECODE_TUPLESET_MEM
GECODE_TUPLESET_MEM
GECODE_TUPLESET_MEM
GECODE_TUPLESET_MEM
GECODE_TUPLESET_MEM
GECODE_TUPLESET_MEM
GECODE_TUPLESET_MEM
GECODE_TUPLESET_MEM
GECODE_TUPLESET_MEM
GECODE_TUPLESET_MEM
GECODE_TUPLESET_MEM
GECODE_TUPLESET_MEM
GECODE_TUPLESET_MEM
GECODE_TUPLESET_MEM
GECODE_TUPLESET_MEM
GECODE_TUPLESET_MEM
GECODE_TUPLESET_MEM
GECODE_TUPLESET_MEM
GECODE_TUPLESET_MEM
GECODE_TUPLESET_MEM
GECODE_TUPLESET_MEM
GECODE_TUPLESET_MEM
GECODE_TUPLESET_MEM
GECODE_TUPLESET_MEM
GECODE_TUPLESET_MEM
GECODE_TUPLESET_MEM
GECODE_TUPLESET_MEM
GECODE_TUPLESET_MEM
GECODE_TUPLESET_MEM
GECODE_TUPLESET_MEM
GECODE_TUPLESET_MEM
GECODE_TUPLESET_MEM
GECODE_TUPLESET_MEM
GECODE_TUPLESET_MEM
GECODE_TUPLESET_MEM
GECODE_TUPLESET_MEM
GECODE_TUPLESET_MEM
GECODE_TUPLESET_MEM
GECODE_TUPLESET_MEM
GECODE_TUPLESET_MEM
GECODE_TUPLESET_MEM
GECODE_TUPLESET_MEM
GECODE_TUPLESET_MEM
GECODE_TUPLESET_MEM
GECODE_TUPLESET_MEM
GECODE_TUPLESET_MEM
GECODE_TUPLESET_MEM
GECODE_TUPLESET_MEM
GECODE_TUPLESET_MEM
GECODE_TUPLESET_MEM
GECODE_TUPLESET_MEM
GECODE_TUPLESET_MEM
GECODE_TUPLESET_MEM
GECODE_TUPLESET_MEM
GECODE_TUPLESET_MEM
GECODE_TUPLESET_MEM
GECODE_TUPLESET_MEM
GECODE_TUPLESET_MEM
GECODE_TUPLESET_MEM
GECODE_TUPLESET_MEM
GECODE_TUPLESET_MEM
GECODE_TUPLESET_MEM
GECODE_TUPLESET_MEM
GECODE_TUPLESET_MEM
GECODE_TUPLESET_MEM
GECODE_TUPLESET_MEM
GECODE_TUPLESET_MEM
GECODE_TUPLESET_MEM
GECODE_TUPLESET_MEM
GECODE_TUPLESET_MEM
GECODE_TUPLESET_MEM
GECODE_TUPLESET_MEM
GECODE_TUPLESET_MEM
GECODE_TUPLESET_MEM
GECODE_TUPLESET_MEM
GECODE_TUPLESET_MEM
GECODE_TUPLESET_MEM
GECODE_TUPLESET_MEM
GECODE_TUPLESET_MEM
GECODE_TUPLESET_MEM
GECODE_TUPLESET_MEM
GECODE_TUPLESET_MEM
GECODE_TUPLESET_MEM
GECODE_TUPLESET_MEM
GECODE_TUPLESET_MEM
GECODE_TUPLESET_MEM
GECODE_TUPLESET_MEM
GECODE_TUPLESET_MEM
GECODE_TUPLESET_MEM
GECODE_TUPLESET_MEM
GECODE_TUPLESET_MEM
GECODE_TUPLESET_MEM
GECODE_TUPLESET_MEM
GECODE_TUPLESET_MEM
GECODE_TUPLESET_MEM
GECODE_TUPLESET_MEM
GECODE_TUPLESET_MEM
GECODE_TUPLESET_MEM
GECODE_TUPLESET_MEM
GECODE_TUPLESET_MEM
GECODE_TUPLESET_MEM
GECODE_TUPLESET_MEM
GECODE_TUPLESET_MEM
GECODE_TUPLESET_MEM
GECODE_TUPLESET_MEM
GECODE_TUPLESET_MEM
GECODE_TUPLESET_MEM
GECODE_TUPLESET_MEM
GECODE_TUPLESET_MEM
GECODE_TUPLESET_MEM
GECODE_TUPLESET_MEM
GECODE_TUPLESET_MEM
GECODE_TUPLESET_MEM
GECODE_TUPLESET_MEM
GECODE_TUPLESET_MEM
GECODE_TUPLESET_MEM
GECODE_TUPLESET_MEM
GECODE_TUPLESET_MEM
GECODE_TUPLESET_MEM
GECODE_TUPLESET_MEM
GECODE_TUPLESET_MEM
GECODE_TUPLESET_MEM
GECODE_TUPLESET_MEM
GECODE_TUPLESET_MEM
GECODE_TUPLESET_MEM
GECODE_TUPLESET_MEM
GECODE_TUPLESET_MEM
GECODE_TUPLESET_MEM
GECODE_TUPLESET_MEM
GECODE_TUPLESET_MEM
GECODE_TUPLESET_MEM
GECODE_TUPLESET_MEM
GECODE_TUPLESET_MEM
L = array1d(0..366, [1, 2, 1, 19, 18, 1, 3, 8, 9, 13, 5, 19, 9, 5, 7, 5, 13, 15, 18, 20, 1, 18, 12, 5, 14, 9, 14, 1, 2, 19, 5, 14, 20, 20, 15, 18, 20, 21, 7, 1, 5, 4, 7, 1, 18, 20, 9, 1, 14, 10, 9, 14, 15, 18, 5, 2, 1, 7, 7, 1, 7, 5, 9, 19, 21, 26, 21, 15, 12, 1, 18, 15, 4, 5, 19, 21, 1, 22, 5, 1, 3, 3, 18, 1, 2, 9, 4, 19, 1, 14, 15, 14, 19, 1, 12, 5, 2, 5, 8, 1, 14, 2, 5, 14, 5, 20, 8, 9, 13, 1, 12, 1, 25, 1, 3, 1, 7, 5, 4, 3, 12, 1, 19, 19, 25, 2, 5, 12, 1, 18, 1, 2, 9, 4, 16, 1, 1, 18, 9, 13, 5, 12, 4, 1, 19, 1, 7, 1, 19, 2, 12, 9, 14, 4, 5, 18, 19, 2, 1, 12, 5, 19, 8, 1, 2, 5, 18, 6, 9, 5, 14, 4, 12, 1, 23, 12, 9, 5, 4, 13, 1, 22, 9, 19, 12, 21, 3, 1, 19, 13, 1, 3, 5, 9, 14, 3, 15, 1, 11, 5, 14, 1, 9, 13, 5, 4, 1, 3, 20, 5, 4, 19, 5, 20, 2, 1, 3, 11, 19, 2, 12, 5, 5, 16, 1, 3, 3, 5, 4, 5, 1, 18, 5, 1, 22, 9, 1, 14, 4, 4, 15, 8, 1, 19, 3, 5, 14, 5, 4, 2, 1, 12, 13, 19, 3, 15, 12, 15, 18, 1, 4, 15, 1, 8, 13, 1, 4, 13, 1, 13, 2, 15, 18, 8, 15, 15, 20, 20, 5, 18, 13, 5, 1, 12, 13, 1, 7, 15, 15, 7, 15, 21, 18, 4, 25, 5, 12, 12, 2, 5, 14, 20, 15, 18, 19, 15, 6, 12, 1, 13, 2, 5, 19, 12, 5, 15, 1, 18, 1, 3, 5, 12, 9, 19, 5, 12, 9, 13, 5, 12, 9, 19, 9, 15, 14, 19, 20, 1, 18, 5, 19, 5, 22, 1, 4, 5, 12, 9, 3, 8, 5, 14, 5, 12, 9, 19, 1, 4, 1, 20, 5, 4, 12, 1, 19, 5, 18]);
----------

%%  runtime:       2.366 (2366.018 ms)
%%  solvetime:     0.607 (607.693 ms)
%%  solutions:     1
%%  variables:     35682
%%  propagators:   45755
%%  propagations:  854881
%%  nodes:         264
%%  failures:      51
%%  restarts:      0
%%  peak depth:    185

GECODE_TUPLESET_SPEED
GECODE_TUPLESET_SPEED
GECODE_TUPLESET_SPEED
GECODE_TUPLESET_SPEED
GECODE_TUPLESET_SPEED
GECODE_TUPLESET_SPEED
GECODE_TUPLESET_SPEED
GECODE_TUPLESET_SPEED
GECODE_TUPLESET_SPEED
GECODE_TUPLESET_SPEED
GECODE_TUPLESET_SPEED
GECODE_TUPLESET_SPEED
GECODE_TUPLESET_SPEED
GECODE_TUPLESET_SPEED
GECODE_TUPLESET_SPEED
GECODE_TUPLESET_SPEED
GECODE_TUPLESET_SPEED
GECODE_TUPLESET_SPEED
GECODE_TUPLESET_SPEED
GECODE_TUPLESET_SPEED
GECODE_TUPLESET_SPEED
GECODE_TUPLESET_SPEED
GECODE_TUPLESET_SPEED
GECODE_TUPLESET_SPEED
GECODE_TUPLESET_SPEED
GECODE_TUPLESET_SPEED
GECODE_TUPLESET_SPEED
GECODE_TUPLESET_SPEED
GECODE_TUPLESET_SPEED
GECODE_TUPLESET_SPEED
GECODE_TUPLESET_SPEED
GECODE_TUPLESET_SPEED
GECODE_TUPLESET_SPEED
GECODE_TUPLESET_SPEED
GECODE_TUPLESET_SPEED
GECODE_TUPLESET_SPEED
GECODE_TUPLESET_SPEED
GECODE_TUPLESET_SPEED
GECODE_TUPLESET_SPEED
GECODE_TUPLESET_SPEED
GECODE_TUPLESET_SPEED
GECODE_TUPLESET_SPEED
GECODE_TUPLESET_SPEED
GECODE_TUPLESET_SPEED
GECODE_TUPLESET_SPEED
GECODE_TUPLESET_SPEED
GECODE_TUPLESET_SPEED
GECODE_TUPLESET_SPEED
GECODE_TUPLESET_SPEED
GECODE_TUPLESET_SPEED
GECODE_TUPLESET_SPEED
GECODE_TUPLESET_SPEED
GECODE_TUPLESET_SPEED
GECODE_TUPLESET_SPEED
GECODE_TUPLESET_SPEED
GECODE_TUPLESET_SPEED
GECODE_TUPLESET_SPEED
GECODE_TUPLESET_SPEED
GECODE_TUPLESET_SPEED
GECODE_TUPLESET_SPEED
GECODE_TUPLESET_SPEED
GECODE_TUPLESET_SPEED
GECODE_TUPLESET_SPEED
GECODE_TUPLESET_SPEED
GECODE_TUPLESET_SPEED
GECODE_TUPLESET_SPEED
GECODE_TUPLESET_SPEED
GECODE_TUPLESET_SPEED
GECODE_TUPLESET_SPEED
GECODE_TUPLESET_SPEED
GECODE_TUPLESET_SPEED
GECODE_TUPLESET_SPEED
GECODE_TUPLESET_SPEED
GECODE_TUPLESET_SPEED
GECODE_TUPLESET_SPEED
GECODE_TUPLESET_SPEED
GECODE_TUPLESET_SPEED
GECODE_TUPLESET_SPEED
GECODE_TUPLESET_SPEED
GECODE_TUPLESET_SPEED
GECODE_TUPLESET_SPEED
GECODE_TUPLESET_SPEED
GECODE_TUPLESET_SPEED
GECODE_TUPLESET_SPEED
GECODE_TUPLESET_SPEED
GECODE_TUPLESET_SPEED
GECODE_TUPLESET_SPEED
GECODE_TUPLESET_SPEED
GECODE_TUPLESET_SPEED
GECODE_TUPLESET_SPEED
GECODE_TUPLESET_SPEED
GECODE_TUPLESET_SPEED
GECODE_TUPLESET_SPEED
GECODE_TUPLESET_SPEED
GECODE_TUPLESET_SPEED
GECODE_TUPLESET_SPEED
GECODE_TUPLESET_SPEED
GECODE_TUPLESET_SPEED
GECODE_TUPLESET_SPEED
GECODE_TUPLESET_SPEED
GECODE_TUPLESET_SPEED
GECODE_TUPLESET_SPEED
GECODE_TUPLESET_SPEED
GECODE_TUPLESET_SPEED
GECODE_TUPLESET_SPEED
GECODE_TUPLESET_SPEED
GECODE_TUPLESET_SPEED
GECODE_TUPLESET_SPEED
GECODE_TUPLESET_SPEED
GECODE_TUPLESET_SPEED
GECODE_TUPLESET_SPEED
GECODE_TUPLESET_SPEED
GECODE_TUPLESET_SPEED
GECODE_TUPLESET_SPEED
GECODE_TUPLESET_SPEED
GECODE_TUPLESET_SPEED
GECODE_TUPLESET_SPEED
GECODE_TUPLESET_SPEED
GECODE_TUPLESET_SPEED
GECODE_TUPLESET_SPEED
GECODE_TUPLESET_SPEED
GECODE_TUPLESET_SPEED
GECODE_TUPLESET_SPEED
GECODE_TUPLESET_SPEED
GECODE_TUPLESET_SPEED
GECODE_TUPLESET_SPEED
GECODE_TUPLESET_SPEED
GECODE_TUPLESET_SPEED
GECODE_TUPLESET_SPEED
GECODE_TUPLESET_SPEED
GECODE_TUPLESET_SPEED
GECODE_TUPLESET_SPEED
GECODE_TUPLESET_SPEED
GECODE_TUPLESET_SPEED
GECODE_TUPLESET_SPEED
GECODE_TUPLESET_SPEED
GECODE_TUPLESET_SPEED
GECODE_TUPLESET_SPEED
GECODE_TUPLESET_SPEED
GECODE_TUPLESET_SPEED
GECODE_TUPLESET_SPEED
GECODE_TUPLESET_SPEED
GECODE_TUPLESET_SPEED
GECODE_TUPLESET_SPEED
L = array1d(0..366, [1, 2, 1, 19, 18, 1, 3, 8, 9, 13, 5, 19, 9, 5, 7, 5, 13, 15, 18, 20, 1, 18, 12, 5, 14, 9, 14, 1, 2, 19, 5, 14, 20, 20, 15, 18, 20, 21, 7, 1, 5, 4, 7, 1, 18, 20, 9, 1, 14, 10, 9, 14, 15, 18, 5, 2, 1, 7, 7, 1, 7, 5, 9, 19, 21, 26, 21, 15, 12, 1, 18, 15, 4, 5, 19, 21, 1, 22, 5, 1, 3, 3, 18, 1, 2, 9, 4, 19, 1, 14, 15, 14, 19, 1, 12, 5, 2, 5, 8, 1, 14, 2, 5, 14, 5, 20, 8, 9, 13, 1, 12, 1, 25, 1, 3, 1, 7, 5, 4, 3, 12, 1, 19, 19, 25, 2, 5, 12, 1, 18, 1, 2, 9, 4, 16, 1, 1, 18, 9, 13, 5, 12, 4, 1, 19, 1, 7, 1, 19, 2, 12, 9, 14, 4, 5, 18, 19, 2, 1, 12, 5, 19, 8, 1, 2, 5, 18, 6, 9, 5, 14, 4, 12, 1, 23, 12, 9, 5, 4, 13, 1, 22, 9, 19, 12, 21, 3, 1, 19, 13, 1, 3, 5, 9, 14, 3, 15, 1, 11, 5, 14, 1, 9, 13, 5, 4, 1, 3, 20, 5, 4, 19, 5, 20, 2, 1, 3, 11, 19, 2, 12, 5, 5, 16, 1, 3, 3, 5, 4, 5, 1, 18, 5, 1, 22, 9, 1, 14, 4, 4, 15, 8, 1, 19, 3, 5, 14, 5, 4, 2, 1, 12, 13, 19, 3, 15, 12, 15, 18, 1, 4, 15, 1, 8, 13, 1, 4, 13, 1, 13, 2, 15, 18, 8, 15, 15, 20, 20, 5, 18, 13, 5, 1, 12, 13, 1, 7, 15, 15, 7, 15, 21, 18, 4, 25, 5, 12, 12, 2, 5, 14, 20, 15, 18, 19, 15, 6, 12, 1, 13, 2, 5, 19, 12, 5, 15, 1, 18, 1, 3, 5, 12, 9, 19, 5, 12, 9, 13, 5, 12, 9, 19, 9, 15, 14, 19, 20, 1, 18, 5, 19, 5, 22, 1, 4, 5, 12, 9, 3, 8, 5, 14, 5, 12, 9, 19, 1, 4, 1, 20, 5, 4, 12, 1, 19, 5, 18]);
----------

%%  runtime:       2.597 (2597.699 ms)
%%  solvetime:     0.751 (751.834 ms)
%%  solutions:     1
%%  variables:     35682
%%  propagators:   45755
%%  propagations:  856678
%%  nodes:         264
%%  failures:      51
%%  restarts:      0
%%  peak depth:    185

COMPACT_TABLE
COMPACT_TABLE
COMPACT_TABLE
COMPACT_TABLE
COMPACT_TABLE
COMPACT_TABLE
COMPACT_TABLE
COMPACT_TABLE
COMPACT_TABLE
COMPACT_TABLE
COMPACT_TABLE
COMPACT_TABLE
COMPACT_TABLE
COMPACT_TABLE
COMPACT_TABLE
COMPACT_TABLE
COMPACT_TABLE
COMPACT_TABLE
COMPACT_TABLE
COMPACT_TABLE
COMPACT_TABLE
COMPACT_TABLE
COMPACT_TABLE
COMPACT_TABLE
COMPACT_TABLE
COMPACT_TABLE
COMPACT_TABLE
COMPACT_TABLE
COMPACT_TABLE
COMPACT_TABLE
COMPACT_TABLE
COMPACT_TABLE
COMPACT_TABLE
COMPACT_TABLE
COMPACT_TABLE
COMPACT_TABLE
COMPACT_TABLE
COMPACT_TABLE
COMPACT_TABLE
COMPACT_TABLE
COMPACT_TABLE
COMPACT_TABLE
COMPACT_TABLE
COMPACT_TABLE
COMPACT_TABLE
COMPACT_TABLE
COMPACT_TABLE
COMPACT_TABLE
COMPACT_TABLE
COMPACT_TABLE
COMPACT_TABLE
COMPACT_TABLE
COMPACT_TABLE
COMPACT_TABLE
COMPACT_TABLE
COMPACT_TABLE
COMPACT_TABLE
COMPACT_TABLE
COMPACT_TABLE
COMPACT_TABLE
COMPACT_TABLE
COMPACT_TABLE
COMPACT_TABLE
COMPACT_TABLE
COMPACT_TABLE
COMPACT_TABLE
COMPACT_TABLE
COMPACT_TABLE
COMPACT_TABLE
COMPACT_TABLE
COMPACT_TABLE
COMPACT_TABLE
COMPACT_TABLE
COMPACT_TABLE
COMPACT_TABLE
COMPACT_TABLE
COMPACT_TABLE
COMPACT_TABLE
COMPACT_TABLE
COMPACT_TABLE
COMPACT_TABLE
COMPACT_TABLE
COMPACT_TABLE
COMPACT_TABLE
COMPACT_TABLE
COMPACT_TABLE
COMPACT_TABLE
COMPACT_TABLE
COMPACT_TABLE
COMPACT_TABLE
COMPACT_TABLE
COMPACT_TABLE
COMPACT_TABLE
COMPACT_TABLE
COMPACT_TABLE
COMPACT_TABLE
COMPACT_TABLE
COMPACT_TABLE
COMPACT_TABLE
COMPACT_TABLE
COMPACT_TABLE
COMPACT_TABLE
COMPACT_TABLE
COMPACT_TABLE
COMPACT_TABLE
COMPACT_TABLE
COMPACT_TABLE
COMPACT_TABLE
COMPACT_TABLE
COMPACT_TABLE
COMPACT_TABLE
COMPACT_TABLE
COMPACT_TABLE
COMPACT_TABLE
COMPACT_TABLE
COMPACT_TABLE
COMPACT_TABLE
COMPACT_TABLE
COMPACT_TABLE
COMPACT_TABLE
COMPACT_TABLE
COMPACT_TABLE
COMPACT_TABLE
COMPACT_TABLE
COMPACT_TABLE
COMPACT_TABLE
COMPACT_TABLE
COMPACT_TABLE
COMPACT_TABLE
COMPACT_TABLE
COMPACT_TABLE
COMPACT_TABLE
COMPACT_TABLE
COMPACT_TABLE
COMPACT_TABLE
COMPACT_TABLE
COMPACT_TABLE
COMPACT_TABLE
COMPACT_TABLE
COMPACT_TABLE
COMPACT_TABLE
COMPACT_TABLE
COMPACT_TABLE
COMPACT_TABLE
L = array1d(0..366, [1, 2, 1, 19, 18, 1, 3, 8, 9, 13, 5, 19, 9, 5, 7, 5, 13, 15, 18, 20, 1, 18, 12, 5, 14, 9, 14, 1, 2, 19, 5, 14, 20, 20, 15, 18, 20, 21, 7, 1, 5, 4, 7, 1, 18, 20, 9, 1, 14, 10, 9, 14, 15, 18, 5, 2, 1, 7, 7, 1, 7, 5, 9, 19, 21, 26, 21, 15, 12, 1, 18, 15, 4, 5, 19, 21, 1, 22, 5, 1, 3, 3, 18, 1, 2, 9, 4, 19, 1, 14, 15, 14, 19, 1, 12, 5, 2, 5, 8, 1, 14, 2, 5, 14, 5, 20, 8, 9, 13, 1, 12, 1, 25, 1, 3, 1, 7, 5, 4, 3, 12, 1, 19, 19, 25, 2, 5, 12, 1, 18, 1, 2, 9, 4, 16, 1, 1, 18, 9, 13, 5, 12, 4, 1, 19, 1, 7, 1, 19, 2, 12, 9, 14, 4, 5, 18, 19, 2, 1, 12, 5, 19, 8, 1, 2, 5, 18, 6, 9, 5, 14, 4, 12, 1, 23, 12, 9, 5, 4, 13, 1, 22, 9, 19, 12, 21, 3, 1, 19, 13, 1, 3, 5, 9, 14, 3, 15, 1, 11, 5, 14, 1, 9, 13, 5, 4, 1, 3, 20, 5, 4, 19, 5, 20, 2, 1, 3, 11, 19, 2, 12, 5, 5, 16, 1, 3, 3, 5, 4, 5, 1, 18, 5, 1, 22, 9, 1, 14, 4, 4, 15, 8, 1, 19, 3, 5, 14, 5, 4, 2, 1, 12, 13, 19, 3, 15, 12, 15, 18, 1, 4, 15, 1, 8, 13, 1, 4, 13, 1, 13, 2, 15, 18, 8, 15, 15, 20, 20, 5, 18, 13, 5, 1, 12, 13, 1, 7, 15, 15, 7, 15, 21, 18, 4, 25, 5, 12, 12, 2, 5, 14, 20, 15, 18, 19, 15, 6, 12, 1, 13, 2, 5, 19, 12, 5, 15, 1, 18, 1, 3, 5, 12, 9, 19, 5, 12, 9, 13, 5, 12, 9, 19, 9, 15, 14, 19, 20, 1, 18, 5, 19, 5, 22, 1, 4, 5, 12, 9, 3, 8, 5, 14, 5, 12, 9, 19, 1, 4, 1, 20, 5, 4, 12, 1, 19, 5, 18]);
----------

%%  runtime:       2.950 (2950.798 ms)
%%  solvetime:     0.494 (494.994 ms)
%%  solutions:     1
%%  variables:     35682
%%  propagators:   45755
%%  propagations:  843185
%%  nodes:         264
%%  failures:      51
%%  restarts:      0
%%  peak depth:    185

